NAME : single
TYPE : ATSP
DIMENSION : 12
EDGE_WEIGHT_TYPE : EXPLICIT
EDGE_WEIGHT_FORMAT : FULL_MATRIX
EDGE_WEIGHT_SECTION
0 963 928 981 1039 1071 704 611 644 873 935 122 
0 0 172 169 355 414 600 543 677 163 296 50000 
0 172 0 152 258 263 50000 463 602 98 231 628 
0 169 152 0 288 353 625 558 715 250 215 50000 
0 355 258 288 0 251 510 530 656 275 309 689 
0 414 263 353 251 0 50000 556 668 336 378 707 
0 600 50000 625 510 50000 0 85 237 550 592 430 
0 543 463 558 530 556 85 0 189 449 557 322 
0 677 602 715 656 668 237 189 0 559 668 390 
0 163 98 250 275 336 550 449 559 0 133 50000 
0 296 231 215 309 378 592 557 668 133 0 748 
0 50000 628 50000 689 707 430 322 390 50000 748 0 
EOF